words_hard_train/9426.qaiger
aag 85 16 0 1 69
2
4
8
12
16
20
24
28
72
82
90
112
120
126
134
140
171
6 2 4
10 6 8
14 10 12
18 14 16
22 18 20
26 22 24
30 27 29
32 26 28
34 31 33
36 23 25
38 37 27
40 3 5
42 41 7
44 7 9
46 45 11
48 43 47
50 11 13
52 51 15
54 48 53
56 15 17
58 57 19
60 54 59
62 19 21
64 63 23
66 60 65
68 39 66
70 35 68
74 32 73
76 33 72
78 75 77
80 71 78
84 81 83
86 38 67
88 87 69
92 88 90
94 85 93
96 34 69
98 97 83
100 99 80
102 95 101
104 89 91
106 101 105
108 55 58
110 109 61
114 111 113
116 61 64
118 117 67
122 119 121
124 115 123
128 52 127
130 129 55
132 53 126
136 47 134
138 137 42
142 138 141
144 46 135
146 143 145
148 147 49
150 133 148
152 130 151
154 110 112
156 153 155
158 124 157
160 118 120
162 159 161
164 106 163
166 103 165
168 79 97
170 166 169
i0 2 y1[0]
i1 1 x2[0]
i2 1 x2[1]
i3 1 x2[2]
i4 1 x2[3]
i5 1 x2[4]
i6 1 x2[5]
i7 1 x2[6]
i8 1 x2[7]
i9 1 x1[7]
i10 1 x1[6]
i11 1 x1[4]
i12 1 x1[5]
i13 1 x1[3]
i14 1 x1[2]
i15 1 x1[1]
o0 bv[0]
c
simplified
  <=
    add
      and
        1
        2 y1
      1 x2
    >> 1
      1 x1
