words_hard_train/9426.qaiger.qdimacs
p cnf 85 208
a 2 67 4 36 6 70 8 41 10 12 45 14 56 60 63 0
e 1 3 5 7 9 11 13 15 16 17 18 19 20 21 22 23 24 25 26 27 28 29 30 31 32 33 34 35 37 38 39 40 42 43 44 46 47 48 49 50 51 52 53 54 55 57 58 59 61 62 64 65 66 68 69 71 72 73 74 75 76 77 78 79 80 81 82 83 84 85 0
-1 -2 3 0
1 -3 0
2 -3 0
-3 -4 5 0
3 -5 0
4 -5 0
-5 -6 7 0
5 -7 0
6 -7 0
-7 -8 9 0
7 -9 0
8 -9 0
-9 -10 11 0
9 -11 0
10 -11 0
-11 -12 13 0
11 -13 0
12 -13 0
13 14 15 0
-13 -15 0
-14 -15 0
-13 -14 16 0
13 -16 0
14 -16 0
15 16 17 0
-15 -17 0
-16 -17 0
11 12 18 0
-11 -18 0
-12 -18 0
18 13 19 0
-18 -19 0
-13 -19 0
1 2 20 0
-1 -20 0
-2 -20 0
20 3 21 0
-20 -21 0
-3 -21 0
3 4 22 0
-3 -22 0
-4 -22 0
22 5 23 0
-22 -23 0
-5 -23 0
21 23 24 0
-21 -24 0
-23 -24 0
5 6 25 0
-5 -25 0
-6 -25 0
25 7 26 0
-25 -26 0
-7 -26 0
-24 26 27 0
24 -27 0
-26 -27 0
7 8 28 0
-7 -28 0
-8 -28 0
28 9 29 0
-28 -29 0
-9 -29 0
-27 29 30 0
27 -30 0
-29 -30 0
9 10 31 0
-9 -31 0
-10 -31 0
31 11 32 0
-31 -32 0
-11 -32 0
-30 32 33 0
30 -33 0
-32 -33 0
19 -33 34 0
-19 -34 0
33 -34 0
17 -34 35 0
-17 -35 0
34 -35 0
-16 36 37 0
16 -37 0
-36 -37 0
16 -36 38 0
-16 -38 0
36 -38 0
37 38 39 0
-37 -39 0
-38 -39 0
35 -39 40 0
-35 -40 0
39 -40 0
40 41 42 0
-40 -42 0
-41 -42 0
-19 33 43 0
19 -43 0
-33 -43 0
43 34 44 0
-43 -44 0
-34 -44 0
-44 -45 46 0
44 -46 0
45 -46 0
42 46 47 0
-42 -47 0
-46 -47 0
-17 34 48 0
17 -48 0
-34 -48 0
48 41 49 0
-48 -49 0
-41 -49 0
49 -40 50 0
-49 -50 0
40 -50 0
47 50 51 0
-47 -51 0
-50 -51 0
44 45 52 0
-44 -52 0
-45 -52 0
50 52 53 0
-50 -53 0
-52 -53 0
27 -29 54 0
-27 -54 0
29 -54 0
54 30 55 0
-54 -55 0
-30 -55 0
55 56 57 0
-55 -57 0
-56 -57 0
30 -32 58 0
-30 -58 0
32 -58 0
58 33 59 0
-58 -59 0
-33 -59 0
59 60 61 0
-59 -61 0
-60 -61 0
57 61 62 0
-57 -62 0
-61 -62 0
-26 63 64 0
26 -64 0
-63 -64 0
64 27 65 0
-64 -65 0
-27 -65 0
26 -63 66 0
-26 -66 0
63 -66 0
23 -67 68 0
-23 -68 0
67 -68 0
68 -21 69 0
-68 -69 0
21 -69 0
-69 70 71 0
69 -71 0
-70 -71 0
-23 67 72 0
23 -72 0
-67 -72 0
71 72 73 0
-71 -73 0
-72 -73 0
73 24 74 0
-73 -74 0
-24 -74 0
66 -74 75 0
-66 -75 0
74 -75 0
-65 75 76 0
65 -76 0
-75 -76 0
-55 -56 77 0
55 -77 0
56 -77 0
76 77 78 0
-76 -78 0
-77 -78 0
-62 78 79 0
62 -79 0
-78 -79 0
-59 -60 80 0
59 -80 0
60 -80 0
79 80 81 0
-79 -81 0
-80 -81 0
-53 81 82 0
53 -82 0
-81 -82 0
51 82 83 0
-51 -83 0
-82 -83 0
39 48 84 0
-39 -84 0
-48 -84 0
-83 84 85 0
83 -85 0
-84 -85 0
-85 0
